50
5469 1242 2801 4308 169 4982 9521 4286 8341 9601 205 131 4361 9600 4545 7977 6716 452 4659 6438 1598 1323 6675 3004 6907 2773 761 3746 7873 3490 5460 7740 2771 8669 411 4502 2417 1709 8999 1661 7802 4711 9453 8858 164 9516 5590 7268 1055 7188 
364581 82795 186723 287185 11266 332116 634701 285719 556038 640034 13665 8732 290718 639967 302984 531773 447710 30131 310584 429178 106528 88195 444977 200256 460443 184857 50730 249720 524840 232655 363981 515974 184724 577904 27398 300118 161125 113927 599903 110727 520107 314050 630168 590503 10932 634368 372648 484509 70329 479176 
118761
